15 33 11
1 1 2 3 4 
1 5 6 
1 7 8 
1 9 10 11 
1 12 13 14 
1 15 16 17 18 19 20 21 22 
1 23 24 6 14 12 25 
1 16 24 26 
1 27 24 6 14 
1 28 24 27 14 
1 29 6 
1 30 24 
1 31 18 
1 17 32 24 6 14 
1 33 16 29 6 19 
1
1
1
1
1
1
1
1
1
1
1
1
1
1
1
1
1
1
1
1
1
1
1
1
1
1
1
1
1
1
1
1
1
